(set-logic QF_NRA)
(declare-fun y1 () Real)
(declare-fun y12 () Real)
(declare-fun y23 () Real)
(declare-fun y34 () Real)
(declare-fun y41 () Real)
(assert
(and
(and (<= (/ 246350884418 100000000000) y1) (<= y1 (/ 252 100)))(and (<= 2 y12) (<= y12 (/ 246350884418 100000000000)))(and (<= 2 y23) (<= y23 (/ 246350884418 100000000000)))(and (<= 2 y34) (<= y34 (/ 246350884418 100000000000)))(and (<= 2 y41) (<= y41 (/ 246350884418 100000000000)))(not (< (+ (* 2 (* (/ 314159265 100000000) (- (/ 114872 1000000)))) (+ (* (+ (/ 116669 1000000) (+ (/ 08743 100000) (+ (/ 148605 1000000) (/ 08743 100000)))) y1) (+ (* 2 (* (+ (/ 080919 1000000) (- (/ 080919 1000000))) y12)) (+ (* 2 (* (+ (- (/ 080919 1000000)) (/ 080919 1000000)) y23)) (+ (* 2 (* (+ (/ 080919 1000000) (- (/ 080919 1000000))) y34)) (+ (* 2 (* (+ (- (/ 080919 1000000)) (/ 080919 1000000)) y41)) (+ (- (/ 725145 1000000)) (+ (/ 595546 1000000) (+ (- (/ 853324 1000000)) (/ 595546 1000000)))))))))) 0)))
)
(check-sat)
(exit)
